NAME: instance_3334
TYPE: TSP
DIMENSION: 20
EDGE_WEIGHT_TYPE: EUC_2D
NODE_COORD_SECTION
0 8.96 70.29
1 35.66 71.36
2 10.78 18.22
3 62.39 65.09
4 90.73 5.98
5 71.79 38.25
6 45.13 22.91
7 44.96 8.35
8 24.41 39.11
9 44.23 29.09
10 40.27 83.47
11 22.41 30.16
12 70.26 11.31
13 19.08 67.31
14 14.97 34.03
15 44.47 2.11
16 10.39 63.37
17 78.60 61.05
18 80.83 93.67
19 61.13 20.24
EOF
